language Essence 1.3

letting class be
        function(1 --> 2, 2 --> 1, 3 --> 4, 4 --> 2, 5 --> 2, 6 --> 1, 7 --> 4, 8 --> 3, 9 --> 2, 10 --> 3, 11 --> 4,
                 12 --> 3, 13 --> 3, 14 --> 2, 15 --> 1, 16 --> 4, 17 --> 3, 18 --> 1, 19 --> 2, 20 --> 1, 21 --> 3)
letting deck_length be 90
letting deck_width be 89
letting length be
        function(1 --> 1, 2 --> 1, 3 --> 1, 4 --> 1, 5 --> 1, 6 --> 2, 7 --> 1, 8 --> 1, 9 --> 1, 10 --> 7, 11 --> 1,
                 12 --> 2, 13 --> 1, 14 --> 1, 15 --> 1, 16 --> 1, 17 --> 2, 18 --> 1, 19 --> 1, 20 --> 1, 21 --> 1)
letting n_classes be 4
letting n_containers be 21
letting separation be function({1, 3} --> 39, {3, 4} --> 2)
letting width be
        function(1 --> 1, 2 --> 1, 3 --> 80, 4 --> 1, 5 --> 1, 6 --> 2, 7 --> 1, 8 --> 8, 9 --> 1, 10 --> 69, 11 --> 1,
                 12 --> 19, 13 --> 1, 14 --> 1, 15 --> 1, 16 --> 4, 17 --> 85, 18 --> 1, 19 --> 1, 20 --> 1, 21 --> 1)
